feasible solution found by trivial heuristic after 0.0 seconds, objective value 0.000000e+00
presolving:
(round 1, fast)       30 del vars, 148 del conss, 0 add conss, 0 chg bounds, 0 chg sides, 0 chg coeffs, 0 upgd conss, 0 impls, 852 clqs
(round 2, fast)       51 del vars, 149 del conss, 0 add conss, 0 chg bounds, 0 chg sides, 0 chg coeffs, 0 upgd conss, 0 impls, 851 clqs
   (0.0s) running MILP presolver
   (0.0s) MILP presolver (2 rounds): 0 aggregations, 150 fixings, 0 bound changes
(round 3, medium)     201 del vars, 149 del conss, 0 add conss, 0 chg bounds, 0 chg sides, 0 chg coeffs, 0 upgd conss, 0 impls, 846 clqs
(round 4, fast)       218 del vars, 171 del conss, 0 add conss, 0 chg bounds, 0 chg sides, 0 chg coeffs, 0 upgd conss, 0 impls, 829 clqs
(round 5, exhaustive) 218 del vars, 173 del conss, 0 add conss, 0 chg bounds, 2 chg sides, 0 chg coeffs, 0 upgd conss, 0 impls, 829 clqs
(round 6, exhaustive) 218 del vars, 173 del conss, 0 add conss, 0 chg bounds, 2 chg sides, 0 chg coeffs, 827 upgd conss, 0 impls, 829 clqs
(round 7, fast)       220 del vars, 173 del conss, 0 add conss, 0 chg bounds, 2 chg sides, 0 chg coeffs, 827 upgd conss, 0 impls, 829 clqs
(round 8, medium)     533 del vars, 174 del conss, 0 add conss, 0 chg bounds, 2 chg sides, 312 chg coeffs, 827 upgd conss, 0 impls, 827 clqs
(round 9, fast)       600 del vars, 197 del conss, 0 add conss, 0 chg bounds, 2 chg sides, 312 chg coeffs, 827 upgd conss, 0 impls, 804 clqs
   (0.1s) running MILP presolver
   (0.1s) MILP presolver (2 rounds): 0 aggregations, 2 fixings, 0 bound changes
(round 10, medium)     606 del vars, 198 del conss, 0 add conss, 0 chg bounds, 2 chg sides, 315 chg coeffs, 827 upgd conss, 0 impls, 803 clqs
(round 11, exhaustive) 606 del vars, 200 del conss, 0 add conss, 0 chg bounds, 2 chg sides, 315 chg coeffs, 827 upgd conss, 0 impls, 803 clqs
   (0.1s) probing: 51/894 (5.7%) - 0 fixings, 0 aggregations, 0 implications, 0 bound changes
   (0.1s) probing aborted: 50/50 successive totally useless probings
   (0.1s) symmetry computation started: requiring (bin +, int -, cont +), (fixed: bin -, int +, cont -)
   (0.1s) no symmetry present
presolving (12 rounds: 12 fast, 7 medium, 4 exhaustive):
 606 deleted vars, 200 deleted constraints, 0 added constraints, 0 tightened bounds, 0 added holes, 2 changed sides, 315 changed coefficients
 0 implications, 803 cliques
presolved problem has 894 variables (894 bin, 0 int, 0 impl, 0 cont) and 800 constraints
    800 constraints of type <setppc>
Presolving Time: 0.07

 time | node  | left  |LP iter|LP it/n|mem/heur|mdpt |vars |cons |rows |cuts |sepa|confs|strbr|  dualbound   | primalbound  |  gap   | compl. 
t 0.1s|     1 |     0 |     0 |     - | trivial|   0 | 894 | 800 |   0 |   0 |  0 |   0 |   0 | 1.573981e+06 | 2.539380e+05 | 519.83%| unknown
p 0.1s|     1 |     0 |     0 |     - |  clique|   0 | 894 | 800 | 800 |   0 |  0 |   0 |   0 | 1.573981e+06 | 4.625342e+05 | 240.30%| unknown
  0.9s|     1 |     0 |  9145 |     - |    12M |   0 | 894 | 800 | 800 |   0 |  0 |   0 |   0 | 5.371754e+05 | 4.625342e+05 |  16.14%| unknown
  1.1s|     1 |     0 |  9322 |     - |    16M |   0 | 894 | 800 | 804 |   4 |  1 |   0 |   0 | 5.369009e+05 | 4.625342e+05 |  16.08%| unknown
  1.3s|     1 |     0 |  9510 |     - |    20M |   0 | 894 | 800 | 808 |   8 |  2 |   0 |   0 | 5.367114e+05 | 4.625342e+05 |  16.04%| unknown
  1.5s|     1 |     0 |  9643 |     - |    22M |   0 | 894 | 800 | 814 |  14 |  3 |   0 |   0 | 5.365518e+05 | 4.625342e+05 |  16.00%| unknown
  1.8s|     1 |     0 |  9841 |     - |    26M |   0 | 894 | 800 | 818 |  18 |  4 |   0 |   0 | 5.364167e+05 | 4.625342e+05 |  15.97%| unknown
  2.0s|     1 |     0 | 10071 |     - |    30M |   0 | 894 | 800 | 820 |  20 |  5 |   0 |   0 | 5.363238e+05 | 4.625342e+05 |  15.95%| unknown
  2.3s|     1 |     0 | 10198 |     - |    34M |   0 | 894 | 800 | 823 |  23 |  6 |   0 |   0 | 5.362976e+05 | 4.625342e+05 |  15.95%| unknown
  2.6s|     1 |     0 | 10301 |     - |    37M |   0 | 894 | 800 | 826 |  26 |  7 |   0 |   0 | 5.362819e+05 | 4.625342e+05 |  15.94%| unknown
  3.0s|     1 |     0 | 10530 |     - |    40M |   0 | 894 | 800 | 829 |  29 |  8 |   0 |   0 | 5.362231e+05 | 4.625342e+05 |  15.93%| unknown
  3.3s|     1 |     0 | 10733 |     - |    44M |   0 | 894 | 800 | 835 |  35 |  9 |   0 |   0 | 5.361663e+05 | 4.625342e+05 |  15.92%| unknown
  3.6s|     1 |     0 | 10847 |     - |    49M |   0 | 894 | 800 | 838 |  38 | 10 |   0 |   0 | 5.361170e+05 | 4.625342e+05 |  15.91%| unknown
  3.8s|     1 |     0 | 10918 |     - |    49M |   0 | 894 | 800 | 842 |  42 | 11 |   0 |   0 | 5.360964e+05 | 4.625342e+05 |  15.90%| unknown
  3.9s|     1 |     0 | 10995 |     - |    49M |   0 | 894 | 800 | 847 |  47 | 12 |   0 |   0 | 5.360704e+05 | 4.625342e+05 |  15.90%| unknown
 time | node  | left  |LP iter|LP it/n|mem/heur|mdpt |vars |cons |rows |cuts |sepa|confs|strbr|  dualbound   | primalbound  |  gap   | compl. 
  4.0s|     1 |     0 | 11026 |     - |    49M |   0 | 894 | 800 | 849 |  49 | 13 |   0 |   0 | 5.360627e+05 | 4.625342e+05 |  15.90%| unknown
  4.2s|     1 |     0 | 11060 |     - |    50M |   0 | 894 | 800 | 851 |  51 | 14 |   0 |   0 | 5.360454e+05 | 4.625342e+05 |  15.89%| unknown
  4.3s|     1 |     0 | 11090 |     - |    50M |   0 | 894 | 800 | 853 |  53 | 15 |   0 |   0 | 5.360427e+05 | 4.625342e+05 |  15.89%| unknown
  4.4s|     1 |     0 | 11155 |     - |    50M |   0 | 894 | 800 | 852 |  55 | 16 |   0 |   0 | 5.360284e+05 | 4.625342e+05 |  15.89%| unknown
  4.6s|     1 |     0 | 11227 |     - |    50M |   0 | 894 | 800 | 854 |  57 | 17 |   0 |   0 | 5.359857e+05 | 4.625342e+05 |  15.88%| unknown
  4.7s|     1 |     0 | 11231 |     - |    51M |   0 | 894 | 800 | 855 |  58 | 18 |   0 |   0 | 5.359856e+05 | 4.625342e+05 |  15.88%| unknown
  4.8s|     1 |     0 | 11258 |     - |    51M |   0 | 894 | 800 | 856 |  59 | 19 |   0 |   0 | 5.359742e+05 | 4.625342e+05 |  15.88%| unknown
  4.9s|     1 |     0 | 11264 |     - |    51M |   0 | 894 | 800 | 857 |  60 | 20 |   0 |   0 | 5.359738e+05 | 4.625342e+05 |  15.88%| unknown
  5.0s|     1 |     0 | 11284 |     - |    51M |   0 | 894 | 800 | 858 |  61 | 21 |   0 |   0 | 5.359706e+05 | 4.625342e+05 |  15.88%| unknown
d 5.6s|     1 |     0 | 15184 |     - |farkasdi|   0 | 894 | 800 | 858 |   0 | 23 |   0 |   0 | 5.359706e+05 | 4.817649e+05 |  11.25%| unknown
d 5.6s|     1 |     0 | 15211 |     - |farkasdi|   0 | 894 | 800 | 858 |   0 | 23 |   0 |   0 | 5.359706e+05 | 5.183576e+05 |   3.40%| unknown
L 9.4s|     1 |     0 | 15211 |     - |    rens|   0 | 894 | 800 | 858 |  61 | 23 |   0 |   0 | 5.359706e+05 | 5.285055e+05 |   1.41%| unknown
  9.4s|     1 |     0 | 15211 |     - |    51M |   0 | 894 | 800 | 858 |  61 | 23 |   0 |   0 | 5.359706e+05 | 5.285055e+05 |   1.41%| unknown
i 9.4s|     1 |     0 | 15211 |     - |  oneopt|   0 | 894 | 800 | 858 |  61 | 23 |   0 |   0 | 5.359706e+05 | 5.288209e+05 |   1.35%| unknown
 12.2s|     1 |     2 | 15211 |     - |    52M |   0 | 894 | 800 | 858 |  61 | 25 |   0 |  36 | 5.356092e+05 | 5.288209e+05 |   1.28%| unknown
 time | node  | left  |LP iter|LP it/n|mem/heur|mdpt |vars |cons |rows |cuts |sepa|confs|strbr|  dualbound   | primalbound  |  gap   | compl. 
*26.7s|    40 |    17 | 23632 | 318.2 |    LP  |  17 | 894 | 828 | 848 |  82 |  1 |  28 | 423 | 5.352459e+05 | 5.288279e+05 |   1.21%|   8.79%
 30.2s|   100 |    29 | 34051 | 230.6 |    67M |  17 | 894 | 828 | 854 | 110 |  1 |  28 | 435 | 5.350747e+05 | 5.288279e+05 |   1.18%|  14.52%
*30.2s|   110 |    27 | 34452 | 213.1 |    LP  |  17 | 894 | 828 | 854 | 110 |  1 |  28 | 435 | 5.350747e+05 | 5.289810e+05 |   1.15%|  14.53%
*31.1s|   129 |    35 | 38680 | 214.5 |    LP  |  17 | 894 | 840 | 854 | 117 |  1 |  40 | 445 | 5.350062e+05 | 5.290354e+05 |   1.13%|  15.36%
*34.2s|   188 |    26 | 44634 | 178.7 |    LP  |  17 | 894 | 848 | 843 | 151 |  2 |  48 | 461 | 5.350062e+05 | 5.293980e+05 |   1.06%|  21.13%
*34.3s|   189 |    25 | 44661 | 177.9 |    LP  |  17 | 894 | 848 | 843 | 151 |  2 |  48 | 461 | 5.350062e+05 | 5.294369e+05 |   1.05%|  21.20%
*34.4s|   193 |    25 | 44914 | 175.5 |    LP  |  17 | 894 | 848 | 847 | 155 |  4 |  48 | 461 | 5.350062e+05 | 5.295967e+05 |   1.02%|  21.48%
*34.5s|   196 |    24 | 45045 | 173.5 |    LP  |  17 | 894 | 848 | 843 | 155 |  2 |  48 | 461 | 5.350062e+05 | 5.296014e+05 |   1.02%|  21.84%
 34.5s|   200 |    24 | 45315 | 171.3 |    79M |  17 | 894 | 848 | 843 | 155 |  0 |  48 | 461 | 5.350062e+05 | 5.296014e+05 |   1.02%|  22.19%
*35.4s|   219 |    26 | 49240 | 174.4 |    LP  |  17 | 894 | 848 | 844 | 159 |  2 |  48 | 472 | 5.350049e+05 | 5.298375e+05 |   0.98%|  23.86%
 39.8s|   300 |    29 | 63384 | 174.5 |    85M |  17 | 894 | 871 | 852 | 208 |  0 |  71 | 504 | 5.346031e+05 | 5.298375e+05 |   0.90%|  29.46%
*41.4s|   317 |    31 | 67510 | 178.1 |    LP  |  17 | 894 | 891 | 858 | 227 |  1 |  91 | 530 | 5.344553e+05 | 5.304774e+05 |   0.75%|  30.40%
*42.4s|   329 |    28 | 69173 | 176.7 |    LP  |  17 | 894 | 891 | 859 | 238 |  2 |  91 | 530 | 5.344553e+05 | 5.305804e+05 |   0.73%|  32.08%
 46.0s|   400 |    29 | 79925 | 172.2 |    89M |  19 | 894 | 907 | 859 | 279 |  8 | 107 | 550 | 5.343054e+05 | 5.305804e+05 |   0.70%|  34.40%
*49.7s|   434 |    29 | 90424 | 182.9 |strongbr|  19 | 894 | 936 | 860 | 341 |  2 | 136 | 572 | 5.342931e+05 | 5.308778e+05 |   0.64%|  37.18%
 time | node  | left  |LP iter|LP it/n|mem/heur|mdpt |vars |cons |rows |cuts |sepa|confs|strbr|  dualbound   | primalbound  |  gap   | compl. 
 53.9s|   500 |    31 |104185 | 186.3 |    97M |  19 | 894 | 974 | 868 | 387 |  0 | 174 | 603 | 5.342127e+05 | 5.308778e+05 |   0.63%|  42.99%
 61.9s|   600 |    39 |125681 | 191.1 |    98M |  19 | 894 | 987 | 866 | 494 |  0 | 187 | 635 | 5.340664e+05 | 5.308778e+05 |   0.60%|  44.56%
 71.4s|   700 |    53 |156755 | 208.2 |    99M |  19 | 894 |1015 | 865 | 619 |  7 | 215 | 662 | 5.335820e+05 | 5.308778e+05 |   0.51%|  47.74%
 78.8s|   800 |    41 |177761 | 208.4 |   100M |  19 | 894 |1075 | 866 | 739 |  3 | 275 | 715 | 5.335295e+05 | 5.308778e+05 |   0.50%|  52.60%
 85.3s|   900 |    41 |201852 | 212.0 |   102M |  20 | 894 |1146 | 872 | 869 |  2 | 346 | 747 | 5.333484e+05 | 5.308778e+05 |   0.47%|  58.53%
 88.5s|  1000 |    37 |216369 | 205.4 |   102M |  20 | 894 |1156 | 858 | 911 |  0 | 356 | 769 | 5.330451e+05 | 5.308778e+05 |   0.41%|  66.59%
 92.3s|  1100 |    25 |233938 | 202.7 |   103M |  20 | 894 |1198 | 869 | 959 |  0 | 398 | 817 | 5.327658e+05 | 5.308778e+05 |   0.36%|  74.25%
 96.6s|  1200 |     7 |252115 | 200.9 |   104M |  20 | 894 |1213 | 846 |1018 |  0 | 413 | 843 | 5.327207e+05 | 5.308778e+05 |   0.35%|  88.21%

SCIP Status        : problem is solved [optimal solution found]
Solving Time (sec) : 97.26
Solving Nodes      : 1233
Primal Bound       : +5.30877793462775e+05 (553 solutions)
Dual Bound         : +5.30877793462775e+05
Gap                : 0.00 %
Solve Status: optimal
Solve Time: 97.26 seconds
